
  26    0


   0  13 2 3 4 5 6 7 8 10 11 22 23 24 25 
   4   5 16 15 14 13 9 
  10   5 18 17 15 13 12 
  10   4 21 18 14 9 
   5   2 17 14 
   8   2 20 15 
  10   2 19 13 
  10   2 14 12 
  10   1 12 
   5   1 16 
   4   1 13 
   2   1 26
   5   1 26
  10   1 26
   3   1 26
   8   1 26
   3   1 26
   1   1 26
   7   1 26
   7   1 26
   3   1 26
   8   1 26
   6   1 26
   2   1 26
   7   1 26
   0   0 
